c defined variables: 13 25 29 33 37 41 45 49 53 57 61 65 69 73 77 81 85 89 93 97 101 105 109 113 126 136 140 149 164 168 176 184 193 194 198 203 204 213 214 222 229 238 239 243 248 249 258 259 264 268 275 295 296 298 299 300 303 304 306 308 309 311 312 313 317 318 319 320 321 325 327 328 330 331 332 334 335 337 338 339 340 342 343 345 346 347 349 350 352 353 354 355 356 358 359 362 364 365 367 368 369 370 372 373 375 376 377 380 381 382 383 384 385 386 387 389 390 391 392 393 394 395 396 397 398 399 401 402 403 404 405 406 407 409 410 411 412 413 414 415 416 417 418 419 420 421 422 423 424 425 426 427 428 429 430 431 432 433 434 435 436 437 438 439 440 441 442 443 444 445 446 447 448 449 450 451 452 453 454 455 456 457 459 460 461 462 463 464 465 466 467 468 469 470 471 472 474 475 477 478 479 480 481 482 483 485 
p cnf 1612 1924
a 256 242 246 228 68 72 56 64 48 60 40 52 32 44 329 333 262 192 202 212 263 237 247 257 326 267 271 284 274 371 366 357 351 363 458 341 336 348 344 20 36 4 8 24 16 1 28 12 476 5 374 473 21 2 9 17 252 278 281 288 291 187 191 171 163 179 175 155 148 167 158 316 408 297 388 294 310 400 302 307 197 211 183 201 225 221 207 217 236 232 104 96 100 92 88 84 76 80 112 108 122 135 129 132 116 139 125 119 143 152 0
e 3 6 7 10 11 14 15 18 19 22 23 26 27 30 31 34 35 38 39 42 43 46 47 50 51 54 55 58 59 62 63 66 67 70 71 74 75 78 79 82 83 86 87 90 91 94 95 98 99 102 103 106 107 110 111 114 115 117 118 120 121 123 124 127 128 130 131 133 134 137 138 141 142 145 146 147 150 151 153 154 156 157 160 161 162 165 166 169 170 172 173 174 177 178 180 181 182 185 186 188 189 190 195 196 199 200 205 206 208 209 210 215 216 219 220 223 224 226 227 230 231 233 234 235 240 241 244 245 250 251 253 254 255 260 261 265 266 269 270 272 273 276 277 279 280 282 283 286 287 289 290 292 293 305 315 324 361 379 484 13 25 29 33 37 41 45 49 53 57 61 65 69 73 77 81 85 89 93 97 101 105 109 113 126 136 140 149 164 168 176 184 193 194 198 203 204 213 214 222 229 238 239 243 248 249 258 259 264 268 275 295 296 298 299 300 303 304 306 308 309 311 312 313 317 318 319 320 321 325 327 328 330 331 332 334 335 337 338 339 340 342 343 345 346 347 349 350 352 353 354 355 356 358 359 362 364 365 367 368 369 370 372 373 375 376 377 380 381 382 383 384 385 386 387 389 390 391 392 393 394 395 396 397 398 399 401 402 403 404 405 406 407 409 410 411 412 413 414 415 416 417 418 419 420 421 422 423 424 425 426 427 428 429 430 431 432 433 434 435 436 437 438 439 440 441 442 443 444 445 446 447 448 449 450 451 452 453 454 455 456 457 459 460 461 462 463 464 465 466 467 468 469 470 471 472 474 475 477 478 479 480 481 482 483 485 1419 1420 1421 1422 1423 1424 1425 1426 1427 1428 1429 1430 1431 1432 1433 1434 1435 1436 1437 1438 1439 1440 1441 1442 1443 1444 1445 1446 1447 1448 1449 1450 1451 1452 1453 1454 1455 1456 1457 1458 1459 1460 1461 1462 1463 1464 1465 1466 1467 1468 1469 1470 1471 1472 1473 1474 1475 1476 1477 1478 1479 1480 1481 1482 1483 1484 1485 1486 1487 1488 1489 1490 1491 1492 1493 1494 1495 1496 1497 1498 1499 1500 1501 1502 1503 1504 1505 1506 1507 1508 1509 1510 1511 1512 1513 1514 1515 1516 1517 1518 1519 1520 1521 1522 1523 1524 1525 1526 1527 1528 1529 1530 1531 1532 1533 1534 1535 1536 1537 1538 1539 1540 1541 1542 1543 1544 1545 1546 1547 1548 1549 1550 1551 1552 1553 1554 1555 1556 1557 1558 1559 1560 1561 1562 1563 1564 1565 1566 1567 1568 1569 1570 1571 1572 1573 1574 1575 1576 1577 1578 1579 1580 1581 1582 1583 1584 1585 1586 1587 1588 1589 1590 1591 1592 1593 1594 1595 1596 1597 1598 1599 1600 1601 1602 1603 1604 1605 1606 1607 1608 1609 1610 1611 1612 0
d 314 400 2 0
d 378 476 288 284 291 2 0
d 360 458 2 0
d 144 5 9 0
d 159 5 9 0
d 301 388 155 152 2 0
d 322 211 201 225 191 217 0
d 285 278 281 473 2 9 0
d 323 256 236 246 262 271 0
d 218 408 2 0
1420 -13 0
-1420 13 0
1421 -25 0
-1421 25 0
1422 -29 0
-1422 29 0
1423 -33 0
-1423 33 0
1424 -37 0
-1424 37 0
1425 -41 0
-1425 41 0
1426 -45 0
-1426 45 0
1427 -49 0
-1427 49 0
1428 -53 0
-1428 53 0
1429 -57 0
-1429 57 0
1430 -61 0
-1430 61 0
1431 -65 0
-1431 65 0
1432 -69 0
-1432 69 0
1433 -73 0
-1433 73 0
1434 -77 0
-1434 77 0
1435 -81 0
-1435 81 0
1436 -85 0
-1436 85 0
1437 -89 0
-1437 89 0
1438 -93 0
-1438 93 0
1439 -97 0
-1439 97 0
1440 -101 0
-1440 101 0
1441 -105 0
-1441 105 0
1442 -109 0
-1442 109 0
1443 -113 0
-1443 113 0
1444 -126 0
-1444 126 0
1445 -136 0
-1445 136 0
1446 -140 0
-1446 140 0
1447 -149 0
-1447 149 0
1448 -164 0
-1448 164 0
1449 -168 0
-1449 168 0
1450 -176 0
-1450 176 0
1451 -184 0
-1451 184 0
1452 -193 0
-1452 193 0
1453 -194 0
-1453 194 0
1454 -198 0
-1454 198 0
1455 -203 0
-1455 203 0
1456 -204 0
-1456 204 0
1457 -213 0
-1457 213 0
1458 -214 0
-1458 214 0
1459 -222 0
-1459 222 0
1439 -229 0
-1439 229 0
1460 -238 0
-1460 238 0
1461 -239 0
-1461 239 0
1462 -243 0
-1462 243 0
1463 -248 0
-1463 248 0
1464 -249 0
-1464 249 0
1465 -258 0
-1465 258 0
1466 -259 0
-1466 259 0
1467 -264 0
-1467 264 0
1468 -268 0
-1468 268 0
1469 -275 0
-1469 275 0
1470 -295 0
-1470 295 0
1471 -296 0
-1471 296 0
1472 -298 0
-1472 298 0
1473 -299 0
-1473 299 0
-1474 -300 0
1474 300 0
1475 -303 0
-1475 303 0
1476 -304 0
-1476 304 0
-1477 -306 0
1477 306 0
1478 -308 0
-1478 308 0
1479 -309 0
-1479 309 0
1480 -311 0
-1480 311 0
1481 -312 0
-1481 312 0
-1482 -313 0
1482 313 0
1483 -317 0
-1483 317 0
1484 -318 0
-1484 318 0
-1485 -319 0
1485 319 0
-1486 -320 0
1486 320 0
-1487 -321 0
1487 321 0
-1488 -325 0
1488 325 0
1489 -327 0
-1489 327 0
1490 -328 0
-1490 328 0
1491 -330 0
-1491 330 0
1492 -331 0
-1492 331 0
-1493 -332 0
1493 332 0
1494 -334 0
-1494 334 0
1495 -335 0
-1495 335 0
1496 -337 0
-1496 337 0
1497 -338 0
-1497 338 0
-1498 -339 0
1498 339 0
-1499 -340 0
1499 340 0
1500 -342 0
-1500 342 0
1501 -343 0
-1501 343 0
1502 -345 0
-1502 345 0
1503 -346 0
-1503 346 0
-1504 -347 0
1504 347 0
1505 -349 0
-1505 349 0
1506 -350 0
-1506 350 0
1507 -352 0
-1507 352 0
1508 -353 0
-1508 353 0
-1509 -354 0
1509 354 0
-1510 -355 0
1510 355 0
-1511 -356 0
1511 356 0
1512 -358 0
-1512 358 0
1513 -359 0
-1513 359 0
-1514 -362 0
1514 362 0
1515 -364 0
-1515 364 0
1516 -365 0
-1516 365 0
1517 -367 0
-1517 367 0
1518 -368 0
-1518 368 0
-1519 -369 0
1519 369 0
-1520 -370 0
1520 370 0
-1523 -372 0
1523 372 0
1524 -373 0
-1524 373 0
1525 -375 0
-1525 375 0
1526 -376 0
-1526 376 0
-1527 -377 0
1527 377 0
-1528 -380 0
1528 380 0
-1529 -381 0
1529 381 0
-1530 -382 0
1530 382 0
1531 -383 0
-1531 383 0
1532 -384 0
-1532 384 0
1533 -385 0
-1533 385 0
1534 -386 0
-1534 386 0
-1535 -387 0
1535 387 0
1536 -389 0
-1536 389 0
1537 -390 0
-1537 390 0
1538 -391 0
-1538 391 0
1539 -392 0
-1539 392 0
-1540 -393 0
1540 393 0
-1541 -394 0
1541 394 0
1542 -395 0
-1542 395 0
1543 -396 0
-1543 396 0
1544 -397 0
-1544 397 0
1545 -398 0
-1545 398 0
-1546 -399 0
1546 399 0
1547 -401 0
-1547 401 0
1548 -402 0
-1548 402 0
1549 -403 0
-1549 403 0
1550 -404 0
-1550 404 0
-1551 -405 0
1551 405 0
-1552 -406 0
1552 406 0
-1553 -407 0
1553 407 0
1554 -409 0
-1554 409 0
1555 -410 0
-1555 410 0
1556 -411 0
-1556 411 0
1557 -412 0
-1557 412 0
-1558 -413 0
1558 413 0
1559 -414 0
-1559 414 0
1560 -415 0
-1560 415 0
1561 -416 0
-1561 416 0
1562 -417 0
-1562 417 0
-1563 -418 0
1563 418 0
-1564 -419 0
1564 419 0
1565 -420 0
-1565 420 0
1566 -421 0
-1566 421 0
1567 -422 0
-1567 422 0
1568 -423 0
-1568 423 0
-1569 -424 0
1569 424 0
1570 -425 0
-1570 425 0
1571 -426 0
-1571 426 0
1572 -427 0
-1572 427 0
1573 -428 0
-1573 428 0
-1574 -429 0
1574 429 0
-1575 -430 0
1575 430 0
-1576 -431 0
1576 431 0
-1577 -432 0
1577 432 0
1489 -433 0
-1489 433 0
1578 -434 0
-1578 434 0
1491 -435 0
-1491 435 0
1579 -436 0
-1579 436 0
-1580 -437 0
1580 437 0
1494 -438 0
-1494 438 0
1581 -439 0
-1581 439 0
1496 -440 0
-1496 440 0
1582 -441 0
-1582 441 0
-1583 -442 0
1583 442 0
-1584 -443 0
1584 443 0
1500 -444 0
-1500 444 0
1585 -445 0
-1585 445 0
1502 -446 0
-1502 446 0
1586 -447 0
-1586 447 0
-1587 -448 0
1587 448 0
1505 -449 0
-1505 449 0
1588 -450 0
-1588 450 0
1507 -451 0
-1507 451 0
1589 -452 0
-1589 452 0
-1590 -453 0
1590 453 0
-1591 -454 0
1591 454 0
-1592 -455 0
1592 455 0
1512 -456 0
-1512 456 0
1593 -457 0
-1593 457 0
1594 -459 0
-1594 459 0
1595 -460 0
-1595 460 0
-1596 -461 0
1596 461 0
1515 -462 0
-1515 462 0
1597 -463 0
-1597 463 0
1517 -464 0
-1517 464 0
1598 -465 0
-1598 465 0
-1599 -466 0
1599 466 0
-1600 -467 0
1600 467 0
1521 -468 0
-1521 468 0
1601 -469 0
-1601 469 0
1525 -470 0
-1525 470 0
1602 -471 0
-1602 471 0
-1603 -472 0
1603 472 0
1604 -474 0
-1604 474 0
1605 -475 0
-1605 475 0
1606 -477 0
-1606 477 0
1607 -478 0
-1607 478 0
-1608 -479 0
1608 479 0
-1609 -480 0
1609 480 0
-1610 -481 0
1610 481 0
-1611 -482 0
1611 482 0
-1612 -483 0
1612 483 0
1419 -485 0
-1419 485 0
485 0
-485 293 484 0
-293 290 -292 0
-290 287 -289 0
-287 283 -286 0
-283 280 -282 0
-280 277 -279 0
-277 273 -276 0
-273 270 -272 0
-270 266 -269 0
-266 261 -265 0
-261 255 -260 0
-255 251 -254 0
-251 245 -250 0
-245 241 -244 0
-241 235 -240 0
-235 231 -234 0
-231 227 -230 0
-227 224 -226 0
-224 220 -223 0
-220 216 -219 0
-216 210 -215 0
-210 206 -209 0
-206 200 -205 0
-200 196 -199 0
-196 190 -195 0
-190 186 -189 0
-186 182 -185 0
-182 178 -181 0
-178 174 -177 0
-174 170 -173 0
-170 166 -169 0
-166 162 -165 0
-162 157 -161 0
-157 154 -156 0
-154 151 -153 0
-151 147 -150 0
-147 142 -146 0
-142 138 -141 0
-138 134 -137 0
-134 131 -133 0
-131 128 -130 0
-128 124 -127 0
-124 121 -123 0
-121 118 -120 0
-118 115 -117 0
-115 111 -114 0
-111 107 -110 0
-107 103 -106 0
-103 99 -102 0
-99 95 -98 0
-95 91 -94 0
-91 87 -90 0
-87 83 -86 0
-83 79 -82 0
-79 75 -78 0
-75 71 -74 0
-71 67 -70 0
-67 63 -66 0
-63 59 -62 0
-59 55 -58 0
-55 51 -54 0
-51 47 -50 0
-47 43 -46 0
-43 39 -42 0
-39 35 -38 0
-35 31 -34 0
-31 27 -30 0
-27 23 -26 0
-23 19 -22 0
-19 15 -18 0
-15 11 -14 0
-11 7 -10 0
-7 -3 -6 0
1 -2 3 0
-1 2 3 0
4 -5 6 0
-4 5 6 0
8 -9 10 0
-8 9 10 0
12 13 14 0
-12 -13 14 0
-4 -8 13 0
-13 4 0
-13 8 0
16 -17 18 0
-16 17 18 0
20 -21 22 0
-20 21 22 0
24 25 26 0
-24 -25 26 0
-16 -20 25 0
-25 16 0
-25 20 0
28 29 30 0
-28 -29 30 0
-12 -24 29 0
-29 12 0
-29 24 0
32 33 34 0
-32 -33 34 0
-5 -8 33 0
-33 5 0
-33 8 0
36 37 38 0
-36 -37 38 0
-32 -24 37 0
-37 32 0
-37 24 0
40 41 42 0
-40 -41 42 0
-4 -9 41 0
-41 4 0
-41 9 0
44 45 46 0
-44 -45 46 0
-40 -24 45 0
-45 40 0
-45 24 0
48 49 50 0
-48 -49 50 0
-5 -9 49 0
-49 5 0
-49 9 0
52 53 54 0
-52 -53 54 0
-48 -24 53 0
-53 48 0
-53 24 0
56 57 58 0
-56 -57 58 0
-17 -20 57 0
-57 17 0
-57 20 0
60 61 62 0
-60 -61 62 0
-12 -56 61 0
-61 12 0
-61 56 0
64 65 66 0
-64 -65 66 0
-32 -56 65 0
-65 32 0
-65 56 0
68 69 70 0
-68 -69 70 0
-40 -56 69 0
-69 40 0
-69 56 0
72 73 74 0
-72 -73 74 0
-48 -56 73 0
-73 48 0
-73 56 0
76 77 78 0
-76 -77 78 0
-16 -21 77 0
-77 16 0
-77 21 0
80 81 82 0
-80 -81 82 0
-12 -76 81 0
-81 12 0
-81 76 0
84 85 86 0
-84 -85 86 0
-32 -76 85 0
-85 32 0
-85 76 0
88 89 90 0
-88 -89 90 0
-40 -76 89 0
-89 40 0
-89 76 0
92 93 94 0
-92 -93 94 0
-48 -76 93 0
-93 48 0
-93 76 0
96 97 98 0
-96 -97 98 0
-17 -21 97 0
-97 17 0
-97 21 0
100 101 102 0
-100 -101 102 0
-12 -96 101 0
-101 12 0
-101 96 0
104 105 106 0
-104 -105 106 0
-32 -96 105 0
-105 32 0
-105 96 0
108 109 110 0
-108 -109 110 0
-40 -96 109 0
-109 40 0
-109 96 0
112 113 114 0
-112 -113 114 0
-48 -96 113 0
-113 48 0
-113 96 0
116 -2 117 0
-116 2 117 0
119 -5 120 0
-119 5 120 0
122 -9 123 0
-122 9 123 0
125 126 127 0
-125 -126 127 0
-119 -122 126 0
-126 119 0
-126 122 0
129 -17 130 0
-129 17 130 0
132 -21 133 0
-132 21 133 0
135 136 137 0
-135 -136 137 0
-129 -132 136 0
-136 129 0
-136 132 0
139 140 141 0
-139 -140 141 0
-125 -135 140 0
-140 125 0
-140 135 0
143 145 146 0
-143 -145 146 0
-144 -135 145 0
-145 144 0
-145 135 0
148 149 150 0
-148 -149 150 0
-119 -9 149 0
-149 119 0
-149 9 0
152 148 153 0
-152 -148 153 0
155 135 156 0
-155 -135 156 0
158 160 161 0
-158 -160 161 0
-159 -135 160 0
-160 159 0
-160 135 0
163 164 165 0
-163 -164 165 0
-17 -132 164 0
-164 17 0
-164 132 0
167 168 169 0
-167 -168 169 0
-125 -163 168 0
-168 125 0
-168 163 0
171 172 173 0
-171 -172 173 0
-144 -163 172 0
-172 144 0
-172 163 0
175 176 177 0
-175 -176 177 0
-148 -163 176 0
-176 148 0
-176 163 0
179 180 181 0
-179 -180 181 0
-159 -163 180 0
-180 159 0
-180 163 0
183 184 185 0
-183 -184 185 0
-129 -21 184 0
-184 129 0
-184 21 0
187 188 189 0
-187 -188 189 0
-144 -183 188 0
-188 144 0
-188 183 0
191 194 195 0
-191 -194 195 0
-193 -187 194 0
-116 -192 193 0
-194 193 0
-194 187 0
-193 116 0
-193 192 0
197 198 199 0
-197 -198 199 0
-148 -183 198 0
-198 148 0
-198 183 0
201 204 205 0
-201 -204 205 0
-203 -197 204 0
-116 -202 203 0
-204 203 0
-204 197 0
-203 116 0
-203 202 0
207 208 209 0
-207 -208 209 0
-159 -183 208 0
-208 159 0
-208 183 0
211 214 215 0
-211 -214 215 0
-213 -207 214 0
-116 -212 213 0
-214 213 0
-214 207 0
-213 116 0
-213 212 0
217 218 219 0
-217 -218 219 0
221 222 223 0
-221 -222 223 0
-125 -183 222 0
-222 125 0
-222 183 0
225 221 226 0
-225 -221 226 0
228 229 230 0
-228 -229 230 0
-17 -21 229 0
-229 17 0
-229 21 0
232 233 234 0
-232 -233 234 0
-144 -228 233 0
-233 144 0
-233 228 0
236 239 240 0
-236 -239 240 0
-238 -232 239 0
-116 -237 238 0
-239 238 0
-239 232 0
-238 116 0
-238 237 0
242 243 244 0
-242 -243 244 0
-148 -228 243 0
-243 148 0
-243 228 0
246 249 250 0
-246 -249 250 0
-248 -242 249 0
-116 -247 248 0
-249 248 0
-249 242 0
-248 116 0
-248 247 0
252 253 254 0
-252 -253 254 0
-159 -228 253 0
-253 159 0
-253 228 0
256 259 260 0
-256 -259 260 0
-258 -252 259 0
-116 -257 258 0
-259 258 0
-259 252 0
-258 116 0
-258 257 0
262 264 265 0
-262 -264 265 0
-116 -263 264 0
-264 116 0
-264 263 0
267 268 269 0
-267 -268 269 0
-125 -228 268 0
-268 125 0
-268 228 0
271 267 272 0
-271 -267 272 0
274 275 276 0
-274 -275 276 0
-148 -135 275 0
-275 148 0
-275 135 0
278 228 279 0
-278 -228 279 0
281 119 282 0
-281 -119 282 0
284 285 286 0
-284 -285 286 0
288 159 289 0
-288 -159 289 0
291 228 292 0
-291 -228 292 0
-484 -382 483 0
-484 382 -483 0
-382 325 381 0
-325 321 324 0
-321 306 320 0
-306 300 305 0
-300 296 299 0
-296 295 0
-296 139 0
-295 116 0
-295 294 0
-299 298 0
-299 143 0
-298 116 0
-298 297 0
-305 301 304 0
-304 303 0
-304 158 0
-303 116 0
-303 302 0
-320 313 319 0
-313 309 312 0
-309 308 0
-309 167 0
-308 116 0
-308 307 0
-312 311 0
-312 171 0
-311 116 0
-311 310 0
-319 315 318 0
-315 314 0
-315 175 0
-318 317 0
-318 179 0
-317 116 0
-317 316 0
-324 322 323 0
-381 356 380 0
-356 340 355 0
-340 332 339 0
-332 328 331 0
-328 327 0
-328 139 0
-327 2 0
-327 326 0
-331 330 0
-331 143 0
-330 2 0
-330 329 0
-339 335 338 0
-335 334 0
-335 274 0
-334 2 0
-334 333 0
-338 337 0
-338 158 0
-337 2 0
-337 336 0
-355 347 354 0
-347 343 346 0
-343 342 0
-343 167 0
-342 2 0
-342 341 0
-346 345 0
-346 171 0
-345 2 0
-345 344 0
-354 350 353 0
-350 349 0
-350 175 0
-349 2 0
-349 348 0
-353 352 0
-353 179 0
-352 2 0
-352 351 0
-380 370 379 0
-370 362 369 0
-362 359 361 0
-359 358 0
-359 221 0
-358 2 0
-358 357 0
-361 360 0
-361 187 0
-369 365 368 0
-365 364 0
-365 197 0
-364 2 0
-364 363 0
-368 367 0
-368 207 0
-367 2 0
-367 366 0
-379 377 378 0
-377 373 376 0
-373 372 0
-373 267 0
-372 -2 371 0
-372 2 -371 0
-376 375 0
-376 232 0
-375 2 0
-375 374 0
-483 432 482 0
-432 407 431 0
-407 394 406 0
-394 387 393 0
-387 384 386 0
-384 383 0
-384 28 0
-383 1 0
-383 294 0
-386 385 0
-386 36 0
-385 1 0
-385 297 0
-393 390 392 0
-390 389 0
-390 44 0
-389 1 0
-389 388 0
-392 391 0
-392 52 0
-391 1 0
-391 302 0
-406 399 405 0
-399 396 398 0
-396 395 0
-396 60 0
-395 1 0
-395 307 0
-398 397 0
-398 64 0
-397 1 0
-397 310 0
-405 402 404 0
-402 401 0
-402 68 0
-401 1 0
-401 400 0
-404 403 0
-404 72 0
-403 1 0
-403 316 0
-431 419 430 0
-419 413 418 0
-413 410 412 0
-410 409 0
-410 80 0
-409 1 0
-409 408 0
-412 411 0
-412 84 0
-411 1 0
-411 192 0
-418 415 417 0
-415 414 0
-415 88 0
-414 1 0
-414 202 0
-417 416 0
-417 92 0
-416 1 0
-416 212 0
-430 424 429 0
-424 421 423 0
-421 420 0
-421 100 0
-420 1 0
-420 263 0
-423 422 0
-423 104 0
-422 1 0
-422 237 0
-429 426 428 0
-426 425 0
-426 108 0
-425 1 0
-425 247 0
-428 427 0
-428 112 0
-427 1 0
-427 257 0
-482 455 481 0
-455 443 454 0
-443 437 442 0
-437 434 436 0
-434 433 0
-434 28 0
-433 2 0
-433 326 0
-436 435 0
-436 36 0
-435 2 0
-435 329 0
-442 439 441 0
-439 438 0
-439 44 0
-438 2 0
-438 333 0
-441 440 0
-441 52 0
-440 2 0
-440 336 0
-454 448 453 0
-448 445 447 0
-445 444 0
-445 60 0
-444 2 0
-444 341 0
-447 446 0
-447 64 0
-446 2 0
-446 344 0
-453 450 452 0
-450 449 0
-450 68 0
-449 2 0
-449 348 0
-452 451 0
-452 72 0
-451 2 0
-451 351 0
-481 467 480 0
-467 461 466 0
-461 457 460 0
-457 456 0
-457 80 0
-456 2 0
-456 357 0
-460 459 0
-460 84 0
-459 2 0
-459 458 0
-466 463 465 0
-463 462 0
-463 88 0
-462 2 0
-462 363 0
-465 464 0
-465 92 0
-464 2 0
-464 366 0
-480 472 479 0
-472 469 471 0
-469 468 0
-469 100 0
-468 2 0
-468 371 0
-471 470 0
-471 104 0
-470 2 0
-470 374 0
-479 475 478 0
-475 474 0
-475 108 0
-474 2 0
-474 473 0
-478 477 0
-478 112 0
-477 2 0
-477 476 0
-325 381 382 0
325 -381 382 0
-325 -381 382 0
-321 324 325 0
321 -324 325 0
-321 -324 325 0
-306 320 321 0
306 -320 321 0
-306 -320 321 0
-300 305 306 0
300 -305 306 0
-300 -305 306 0
-296 299 300 0
296 -299 300 0
-296 -299 300 0
-295 -139 296 0
-116 -294 295 0
-298 -143 299 0
-116 -297 298 0
-301 304 305 0
301 -304 305 0
-301 -304 305 0
-303 -158 304 0
-116 -302 303 0
-313 319 320 0
313 -319 320 0
-313 -319 320 0
-309 312 313 0
309 -312 313 0
-309 -312 313 0
-308 -167 309 0
-116 -307 308 0
-311 -171 312 0
-116 -310 311 0
-315 318 319 0
315 -318 319 0
-315 -318 319 0
-314 -175 315 0
-317 -179 318 0
-116 -316 317 0
-322 323 324 0
322 -323 324 0
-322 -323 324 0
-356 380 381 0
356 -380 381 0
-356 -380 381 0
-340 355 356 0
340 -355 356 0
-340 -355 356 0
-332 339 340 0
332 -339 340 0
-332 -339 340 0
-328 331 332 0
328 -331 332 0
-328 -331 332 0
-327 -139 328 0
-2 -326 327 0
-330 -143 331 0
-2 -329 330 0
-335 338 339 0
335 -338 339 0
-335 -338 339 0
-334 -274 335 0
-2 -333 334 0
-337 -158 338 0
-2 -336 337 0
-347 354 355 0
347 -354 355 0
-347 -354 355 0
-343 346 347 0
343 -346 347 0
-343 -346 347 0
-342 -167 343 0
-2 -341 342 0
-345 -171 346 0
-2 -344 345 0
-350 353 354 0
350 -353 354 0
-350 -353 354 0
-349 -175 350 0
-2 -348 349 0
-352 -179 353 0
-2 -351 352 0
-370 379 380 0
370 -379 380 0
-370 -379 380 0
-362 369 370 0
362 -369 370 0
-362 -369 370 0
-359 361 362 0
359 -361 362 0
-359 -361 362 0
-358 -221 359 0
-2 -357 358 0
-360 -187 361 0
-365 368 369 0
365 -368 369 0
-365 -368 369 0
-364 -197 365 0
-2 -363 364 0
-367 -207 368 0
-2 -366 367 0
-377 378 379 0
377 -378 379 0
-377 -378 379 0
-373 376 377 0
373 -376 377 0
-373 -376 377 0
-372 -267 373 0
2 371 372 0
-2 -371 372 0
-375 -232 376 0
-2 -374 375 0
-432 482 483 0
432 -482 483 0
-432 -482 483 0
-407 431 432 0
407 -431 432 0
-407 -431 432 0
-394 406 407 0
394 -406 407 0
-394 -406 407 0
-387 393 394 0
387 -393 394 0
-387 -393 394 0
-384 386 387 0
384 -386 387 0
-384 -386 387 0
-383 -28 384 0
-1 -294 383 0
-385 -36 386 0
-1 -297 385 0
-390 392 393 0
390 -392 393 0
-390 -392 393 0
-389 -44 390 0
-1 -388 389 0
-391 -52 392 0
-1 -302 391 0
-399 405 406 0
399 -405 406 0
-399 -405 406 0
-396 398 399 0
396 -398 399 0
-396 -398 399 0
-395 -60 396 0
-1 -307 395 0
-397 -64 398 0
-1 -310 397 0
-402 404 405 0
402 -404 405 0
-402 -404 405 0
-401 -68 402 0
-1 -400 401 0
-403 -72 404 0
-1 -316 403 0
-419 430 431 0
419 -430 431 0
-419 -430 431 0
-413 418 419 0
413 -418 419 0
-413 -418 419 0
-410 412 413 0
410 -412 413 0
-410 -412 413 0
-409 -80 410 0
-1 -408 409 0
-411 -84 412 0
-1 -192 411 0
-415 417 418 0
415 -417 418 0
-415 -417 418 0
-414 -88 415 0
-1 -202 414 0
-416 -92 417 0
-1 -212 416 0
-424 429 430 0
424 -429 430 0
-424 -429 430 0
-421 423 424 0
421 -423 424 0
-421 -423 424 0
-420 -100 421 0
-1 -263 420 0
-422 -104 423 0
-1 -237 422 0
-426 428 429 0
426 -428 429 0
-426 -428 429 0
-425 -108 426 0
-1 -247 425 0
-427 -112 428 0
-1 -257 427 0
-455 481 482 0
455 -481 482 0
-455 -481 482 0
-443 454 455 0
443 -454 455 0
-443 -454 455 0
-437 442 443 0
437 -442 443 0
-437 -442 443 0
-434 436 437 0
434 -436 437 0
-434 -436 437 0
-433 -28 434 0
-2 -326 433 0
-435 -36 436 0
-2 -329 435 0
-439 441 442 0
439 -441 442 0
-439 -441 442 0
-438 -44 439 0
-2 -333 438 0
-440 -52 441 0
-2 -336 440 0
-448 453 454 0
448 -453 454 0
-448 -453 454 0
-445 447 448 0
445 -447 448 0
-445 -447 448 0
-444 -60 445 0
-2 -341 444 0
-446 -64 447 0
-2 -344 446 0
-450 452 453 0
450 -452 453 0
-450 -452 453 0
-449 -68 450 0
-2 -348 449 0
-451 -72 452 0
-2 -351 451 0
-467 480 481 0
467 -480 481 0
-467 -480 481 0
-461 466 467 0
461 -466 467 0
-461 -466 467 0
-457 460 461 0
457 -460 461 0
-457 -460 461 0
-456 -80 457 0
-2 -357 456 0
-459 -84 460 0
-2 -458 459 0
-463 465 466 0
463 -465 466 0
-463 -465 466 0
-462 -88 463 0
-2 -363 462 0
-464 -92 465 0
-2 -366 464 0
-472 479 480 0
472 -479 480 0
-472 -479 480 0
-469 471 472 0
469 -471 472 0
-469 -471 472 0
-468 -100 469 0
-2 -371 468 0
-470 -104 471 0
-2 -374 470 0
-475 478 479 0
475 -478 479 0
-475 -478 479 0
-474 -108 475 0
-2 -473 474 0
-477 -112 478 0
-2 -476 477 0
1419 0
4 -1420 0
8 -1420 0
-4 -8 1420 0
20 -1421 0
16 -1421 0
-20 -16 1421 0
24 -1422 0
12 -1422 0
-24 -12 1422 0
8 -1423 0
5 -1423 0
-8 -5 1423 0
32 -1424 0
24 -1424 0
-32 -24 1424 0
4 -1425 0
9 -1425 0
-4 -9 1425 0
40 -1426 0
24 -1426 0
-40 -24 1426 0
5 -1427 0
9 -1427 0
-5 -9 1427 0
48 -1428 0
24 -1428 0
-48 -24 1428 0
20 -1429 0
17 -1429 0
-20 -17 1429 0
56 -1430 0
12 -1430 0
-56 -12 1430 0
56 -1431 0
32 -1431 0
-56 -32 1431 0
56 -1432 0
40 -1432 0
-56 -40 1432 0
56 -1433 0
48 -1433 0
-56 -48 1433 0
16 -1434 0
21 -1434 0
-16 -21 1434 0
12 -1435 0
76 -1435 0
-12 -76 1435 0
32 -1436 0
76 -1436 0
-32 -76 1436 0
40 -1437 0
76 -1437 0
-40 -76 1437 0
48 -1438 0
76 -1438 0
-48 -76 1438 0
21 -1439 0
17 -1439 0
-21 -17 1439 0
12 -1440 0
96 -1440 0
-12 -96 1440 0
32 -1441 0
96 -1441 0
-32 -96 1441 0
40 -1442 0
96 -1442 0
-40 -96 1442 0
48 -1443 0
96 -1443 0
-48 -96 1443 0
122 -1444 0
119 -1444 0
-122 -119 1444 0
129 -1445 0
132 -1445 0
-129 -132 1445 0
135 -1446 0
125 -1446 0
-135 -125 1446 0
9 -1447 0
119 -1447 0
-9 -119 1447 0
17 -1448 0
132 -1448 0
-17 -132 1448 0
163 -1449 0
125 -1449 0
-163 -125 1449 0
163 -1450 0
148 -1450 0
-163 -148 1450 0
21 -1451 0
129 -1451 0
-21 -129 1451 0
192 -1452 0
116 -1452 0
-192 -116 1452 0
187 -1453 0
193 -1453 0
-187 -193 1453 0
148 -1454 0
183 -1454 0
-148 -183 1454 0
202 -1455 0
116 -1455 0
-202 -116 1455 0
197 -1456 0
203 -1456 0
-197 -203 1456 0
212 -1457 0
116 -1457 0
-212 -116 1457 0
207 -1458 0
213 -1458 0
-207 -213 1458 0
183 -1459 0
125 -1459 0
-183 -125 1459 0
237 -1460 0
116 -1460 0
-237 -116 1460 0
232 -1461 0
238 -1461 0
-232 -238 1461 0
228 -1462 0
148 -1462 0
-228 -148 1462 0
247 -1463 0
116 -1463 0
-247 -116 1463 0
242 -1464 0
248 -1464 0
-242 -248 1464 0
257 -1465 0
116 -1465 0
-257 -116 1465 0
252 -1466 0
258 -1466 0
-252 -258 1466 0
263 -1467 0
116 -1467 0
-263 -116 1467 0
228 -1468 0
125 -1468 0
-228 -125 1468 0
148 -1469 0
135 -1469 0
-148 -135 1469 0
294 -1470 0
116 -1470 0
-294 -116 1470 0
139 -1471 0
295 -1471 0
-139 -295 1471 0
297 -1472 0
116 -1472 0
-297 -116 1472 0
143 -1473 0
298 -1473 0
-143 -298 1473 0
-296 -1474 0
-299 -1474 0
296 299 1474 0
302 -1475 0
116 -1475 0
-302 -116 1475 0
158 -1476 0
303 -1476 0
-158 -303 1476 0
-300 -1477 0
-305 -1477 0
300 305 1477 0
307 -1478 0
116 -1478 0
-307 -116 1478 0
167 -1479 0
308 -1479 0
-167 -308 1479 0
310 -1480 0
116 -1480 0
-310 -116 1480 0
171 -1481 0
311 -1481 0
-171 -311 1481 0
-309 -1482 0
-312 -1482 0
309 312 1482 0
316 -1483 0
116 -1483 0
-316 -116 1483 0
179 -1484 0
317 -1484 0
-179 -317 1484 0
-315 -1485 0
-318 -1485 0
315 318 1485 0
-313 -1486 0
-319 -1486 0
313 319 1486 0
-306 -1487 0
-320 -1487 0
306 320 1487 0
-321 -1488 0
-324 -1488 0
321 324 1488 0
326 -1489 0
2 -1489 0
-326 -2 1489 0
139 -1490 0
327 -1490 0
-139 -327 1490 0
329 -1491 0
2 -1491 0
-329 -2 1491 0
143 -1492 0
330 -1492 0
-143 -330 1492 0
-328 -1493 0
-331 -1493 0
328 331 1493 0
333 -1494 0
2 -1494 0
-333 -2 1494 0
274 -1495 0
334 -1495 0
-274 -334 1495 0
336 -1496 0
2 -1496 0
-336 -2 1496 0
158 -1497 0
337 -1497 0
-158 -337 1497 0
-335 -1498 0
-338 -1498 0
335 338 1498 0
-332 -1499 0
-339 -1499 0
332 339 1499 0
341 -1500 0
2 -1500 0
-341 -2 1500 0
167 -1501 0
342 -1501 0
-167 -342 1501 0
344 -1502 0
2 -1502 0
-344 -2 1502 0
171 -1503 0
345 -1503 0
-171 -345 1503 0
-343 -1504 0
-346 -1504 0
343 346 1504 0
348 -1505 0
2 -1505 0
-348 -2 1505 0
175 -1506 0
349 -1506 0
-175 -349 1506 0
351 -1507 0
2 -1507 0
-351 -2 1507 0
179 -1508 0
352 -1508 0
-179 -352 1508 0
-350 -1509 0
-353 -1509 0
350 353 1509 0
-347 -1510 0
-354 -1510 0
347 354 1510 0
-340 -1511 0
-355 -1511 0
340 355 1511 0
357 -1512 0
2 -1512 0
-357 -2 1512 0
221 -1513 0
358 -1513 0
-221 -358 1513 0
-359 -1514 0
-361 -1514 0
359 361 1514 0
363 -1515 0
2 -1515 0
-363 -2 1515 0
197 -1516 0
364 -1516 0
-197 -364 1516 0
366 -1517 0
2 -1517 0
-366 -2 1517 0
207 -1518 0
367 -1518 0
-207 -367 1518 0
-365 -1519 0
-368 -1519 0
365 368 1519 0
-362 -1520 0
-369 -1520 0
362 369 1520 0
371 -1521 0
2 -1521 0
-371 -2 1521 0
-371 -1522 0
-2 -1522 0
371 2 1522 0
-1521 -1523 0
-1522 -1523 0
1521 1522 1523 0
267 -1524 0
372 -1524 0
-267 -372 1524 0
374 -1525 0
2 -1525 0
-374 -2 1525 0
232 -1526 0
375 -1526 0
-232 -375 1526 0
-373 -1527 0
-376 -1527 0
373 376 1527 0
-370 -1528 0
-379 -1528 0
370 379 1528 0
-356 -1529 0
1528 -1529 0
356 -1528 1529 0
-325 -1530 0
-381 -1530 0
325 381 1530 0
1 -1531 0
294 -1531 0
-1 -294 1531 0
28 -1532 0
383 -1532 0
-28 -383 1532 0
1 -1533 0
297 -1533 0
-1 -297 1533 0
36 -1534 0
385 -1534 0
-36 -385 1534 0
-384 -1535 0
-386 -1535 0
384 386 1535 0
1 -1536 0
388 -1536 0
-1 -388 1536 0
44 -1537 0
389 -1537 0
-44 -389 1537 0
1 -1538 0
302 -1538 0
-1 -302 1538 0
52 -1539 0
391 -1539 0
-52 -391 1539 0
-390 -1540 0
-392 -1540 0
390 392 1540 0
-387 -1541 0
-393 -1541 0
387 393 1541 0
1 -1542 0
307 -1542 0
-1 -307 1542 0
60 -1543 0
395 -1543 0
-60 -395 1543 0
1 -1544 0
310 -1544 0
-1 -310 1544 0
64 -1545 0
397 -1545 0
-64 -397 1545 0
-396 -1546 0
-398 -1546 0
396 398 1546 0
1 -1547 0
400 -1547 0
-1 -400 1547 0
68 -1548 0
401 -1548 0
-68 -401 1548 0
1 -1549 0
316 -1549 0
-1 -316 1549 0
72 -1550 0
403 -1550 0
-72 -403 1550 0
-402 -1551 0
-404 -1551 0
402 404 1551 0
-399 -1552 0
-405 -1552 0
399 405 1552 0
-394 -1553 0
1552 -1553 0
394 -1552 1553 0
1 -1554 0
408 -1554 0
-1 -408 1554 0
80 -1555 0
409 -1555 0
-80 -409 1555 0
192 -1556 0
1 -1556 0
-192 -1 1556 0
84 -1557 0
411 -1557 0
-84 -411 1557 0
-410 -1558 0
-412 -1558 0
410 412 1558 0
202 -1559 0
1 -1559 0
-202 -1 1559 0
88 -1560 0
414 -1560 0
-88 -414 1560 0
212 -1561 0
1 -1561 0
-212 -1 1561 0
92 -1562 0
416 -1562 0
-92 -416 1562 0
-415 -1563 0
-417 -1563 0
415 417 1563 0
-413 -1564 0
-418 -1564 0
413 418 1564 0
263 -1565 0
1 -1565 0
-263 -1 1565 0
100 -1566 0
420 -1566 0
-100 -420 1566 0
237 -1567 0
1 -1567 0
-237 -1 1567 0
104 -1568 0
422 -1568 0
-104 -422 1568 0
-421 -1569 0
-423 -1569 0
421 423 1569 0
247 -1570 0
1 -1570 0
-247 -1 1570 0
108 -1571 0
425 -1571 0
-108 -425 1571 0
257 -1572 0
1 -1572 0
-257 -1 1572 0
112 -1573 0
427 -1573 0
-112 -427 1573 0
-426 -1574 0
-428 -1574 0
426 428 1574 0
-424 -1575 0
-429 -1575 0
424 429 1575 0
-419 -1576 0
-430 -1576 0
419 430 1576 0
-407 -1577 0
1576 -1577 0
407 -1576 1577 0
28 -1578 0
433 -1578 0
-28 -433 1578 0
36 -1579 0
435 -1579 0
-36 -435 1579 0
-434 -1580 0
-436 -1580 0
434 436 1580 0
44 -1581 0
438 -1581 0
-44 -438 1581 0
52 -1582 0
440 -1582 0
-52 -440 1582 0
-439 -1583 0
-441 -1583 0
439 441 1583 0
-437 -1584 0
-442 -1584 0
437 442 1584 0
60 -1585 0
444 -1585 0
-60 -444 1585 0
64 -1586 0
446 -1586 0
-64 -446 1586 0
-445 -1587 0
-447 -1587 0
445 447 1587 0
68 -1588 0
449 -1588 0
-68 -449 1588 0
72 -1589 0
451 -1589 0
-72 -451 1589 0
-450 -1590 0
-452 -1590 0
450 452 1590 0
-448 -1591 0
-453 -1591 0
448 453 1591 0
-443 -1592 0
1591 -1592 0
443 -1591 1592 0
80 -1593 0
456 -1593 0
-80 -456 1593 0
458 -1594 0
2 -1594 0
-458 -2 1594 0
84 -1595 0
459 -1595 0
-84 -459 1595 0
-457 -1596 0
-460 -1596 0
457 460 1596 0
88 -1597 0
462 -1597 0
-88 -462 1597 0
92 -1598 0
464 -1598 0
-92 -464 1598 0
-463 -1599 0
-465 -1599 0
463 465 1599 0
-461 -1600 0
-466 -1600 0
461 466 1600 0
100 -1601 0
468 -1601 0
-100 -468 1601 0
104 -1602 0
470 -1602 0
-104 -470 1602 0
-469 -1603 0
-471 -1603 0
469 471 1603 0
473 -1604 0
2 -1604 0
-473 -2 1604 0
108 -1605 0
474 -1605 0
-108 -474 1605 0
476 -1606 0
2 -1606 0
-476 -2 1606 0
112 -1607 0
477 -1607 0
-112 -477 1607 0
-475 -1608 0
-478 -1608 0
475 478 1608 0
-472 -1609 0
-479 -1609 0
472 479 1609 0
-467 -1610 0
-480 -1610 0
467 480 1610 0
-455 -1611 0
-481 -1611 0
455 481 1611 0
-432 -1612 0
1611 -1612 0
432 -1611 1612 0
